# Objective value = 1.9436325851305619e+03
x[0] 1
x[1] 0
x[2] 1
x[3] 0
x[4] 0
x[5] 0
x[6] 1
x[7] 1
x[8] 0
x[9] 0
x[10] 0
x[11] 1
x[12] 1
x[13] 1
x[14] 1
x[15] 1
x[16] 0
x[17] 1
x[18] 1
x[19] 1
x[20] 0
x[21] 0
x[22] 1
x[23] 0
x[24] 1
x[25] 1
x[26] 1
x[27] 1
x[28] 0
x[29] 1
x[30] 1
x[31] 1
x[32] 0
x[33] 0
x[34] 0
x[35] 1
x[36] 1
x[37] 0
x[38] 1
x[39] 1
x[40] 1
x[41] 1
x[42] 1
x[43] 1
x[44] 1
x[45] 1
x[46] 1
x[47] 0
x[48] 1
x[49] 0
x[50] 0
x[51] 0
x[52] 1
x[53] 1
x[54] 1
x[55] 0
x[56] 0
x[57] 1
x[58] 0
x[59] 0
x[60] 1
x[61] 0
x[62] 0
x[63] 0
x[64] 1
x[65] 1
x[66] 0
x[67] 0
x[68] 1
x[69] 0
x[70] 1
x[71] 1
x[72] 0
x[73] 0
x[74] 0
x[75] 1
x[76] 1
x[77] 1
x[78] 0
x[79] 0
x[80] 0
x[81] 1
x[82] 0
x[83] 0
x[84] 0
x[85] 0
x[86] 1
x[87] 1
x[88] 0
x[89] 0
x[90] 1
x[91] 1
x[92] 0
x[93] 0
x[94] 0
x[95] 0
x[96] 0
x[97] 1
x[98] 0
x[99] 1
x[100] 1
x[101] 1
x[102] 0
x[103] 0
x[104] 1
x[105] 1
x[106] 1
x[107] 0
x[108] 1
x[109] 1
x[110] 0
x[111] 1
x[112] 1
x[113] 0
x[114] 1
x[115] 0
x[116] 1
x[117] 1
x[118] 0
x[119] 1
x[120] 0
x[121] 0
x[122] 1
x[123] 1
x[124] 1
x[125] 1
x[126] 0
x[127] 0
x[128] 1
x[129] 1
x[130] 1
x[131] 1
x[132] 1
x[133] 0
x[134] 0
x[135] 0
x[136] 1
x[137] 1
x[138] 0
x[139] 1
x[140] 1
x[141] 1
x[142] 1
x[143] 1
x[144] 0
x[145] 0
x[146] 0
x[147] 0
x[148] 1
x[149] 1
x[150] 1
x[151] 0
x[152] 1
x[153] 0
x[154] 0
x[155] 0
x[156] 1
x[157] 0
x[158] 1
x[159] 0
x[160] 0
x[161] 0
x[162] 0
x[163] 1
x[164] 0
x[165] 1
x[166] 1
x[167] 1
x[168] 0
x[169] 1
x[170] 0
x[171] 1
x[172] 0
x[173] 1
x[174] 1
x[175] 0
x[176] 0
x[177] 1
x[178] 1
x[179] 0
x[180] 0
x[181] 1
x[182] 1
x[183] 0
x[184] 1
x[185] 1
x[186] 0
x[187] 1
x[188] 0
x[189] 0
x[190] 0
x[191] 1
x[192] 0
x[193] 0
x[194] 0
x[195] 0
x[196] 0
x[197] 1
x[198] 1
x[199] 0
x[200] 0
x[201] 0
x[202] 0
x[203] 1
x[204] 0
x[205] 0
x[206] 1
x[207] 1
x[208] 0
x[209] 1
x[210] 1
x[211] 0
x[212] 0
x[213] 0
x[214] 1
x[215] 1
x[216] 0
x[217] 1
x[218] 1
x[219] 1
x[220] 0
x[221] 1
x[222] 0
x[223] 1
x[224] 1
x[225] 0
x[226] 1
x[227] 0
x[228] 0
x[229] 0
x[230] 0
x[231] 1
x[232] 0
x[233] 1
x[234] 0
x[235] 0
x[236] 1
x[237] 1
x[238] 1
x[239] 1
x[240] 0
x[241] 0
x[242] 1
x[243] 0
x[244] 0
x[245] 1
x[246] 0
x[247] 0
x[248] 1
x[249] 1
x[250] 1
x[251] 1
x[252] 1
x[253] 1
x[254] 1
x[255] 0
x[256] 1
x[257] 1
x[258] 0
x[259] 1
x[260] 0
x[261] 1
x[262] 1
x[263] 0
x[264] 1
x[265] 1
x[266] 1
x[267] 1
x[268] 1
x[269] 1
x[270] 0
x[271] 0
x[272] 0
x[273] 0
x[274] 0
x[275] 0
x[276] 1
x[277] 1
x[278] 1
x[279] 1
x[280] 1
x[281] 1
x[282] 0
x[283] 0
x[284] 0
x[285] 1
x[286] 1
x[287] 1
x[288] 0
x[289] 1
x[290] 1
x[291] 0
x[292] 1
x[293] 1
x[294] 1
x[295] 1
x[296] 1
x[297] 0
x[298] 1
x[299] 1
x[300] 1
x[301] 0
x[302] 0
x[303] 1
x[304] 1
x[305] 1
x[306] 1
x[307] 0
x[308] 1
x[309] 1
x[310] 1
x[311] 0
x[312] 1
x[313] 0
x[314] 0
x[315] 1
x[316] 0
x[317] 1
x[318] 0
x[319] 0
x[320] 1
x[321] 1
x[322] 0
x[323] 0
x[324] 0
x[325] 1
x[326] 0
x[327] 1
x[328] 0
x[329] 0
x[330] 0
x[331] 1
x[332] 0
x[333] 1
x[334] 0
x[335] 0
x[336] 1
x[337] 1
x[338] 0
x[339] 0
x[340] 0
x[341] 1
x[342] 0
x[343] 0
x[344] 1
x[345] 1
x[346] 1
x[347] 0
x[348] 0
x[349] 1
x[350] 1
x[351] 1
x[352] 0
x[353] 0
x[354] 0
x[355] 1
x[356] 0
x[357] 1
x[358] 0
x[359] 1
x[360] 0
x[361] 1
x[362] 0
x[363] 0
x[364] 0
x[365] 1
x[366] 1
x[367] 0
x[368] 1
x[369] 1
x[370] 1
x[371] 1
x[372] 1
x[373] 1
x[374] 1
x[375] 0
x[376] 1
x[377] 1
x[378] 1
x[379] 0
x[380] 1
x[381] 0
x[382] 1
x[383] 1
x[384] 1
x[385] 1
x[386] 1
x[387] 0
x[388] 1
x[389] 1
x[390] 0
x[391] 1
x[392] 1
x[393] 0
x[394] 1
x[395] 1
x[396] 1
x[397] 1
x[398] 1
x[399] 0
x[400] 1
x[401] 0
x[402] 1
x[403] 0
x[404] 0
x[405] 1
x[406] 0
x[407] 1
x[408] 0
x[409] 1
x[410] 0
x[411] 0
x[412] 1
x[413] 0
x[414] 1
x[415] 1
x[416] 1
x[417] 1
x[418] 1
x[419] 1
x[420] 1
x[421] 0
x[422] 0
x[423] 1
x[424] 0
x[425] 0
x[426] 0
x[427] 0
x[428] 1
x[429] 1
x[430] 0
x[431] 0
x[432] 1
x[433] 0
x[434] 0
x[435] 0
x[436] 0
x[437] 0
x[438] 1
x[439] 1
x[440] 1
x[441] 0
x[442] 1
x[443] 0
x[444] 1
x[445] 1
x[446] 1
x[447] 1
x[448] 0
x[449] 1
x[450] 0
x[451] 1
x[452] 1
x[453] 1
x[454] 1
x[455] 1
x[456] 1
x[457] 0
x[458] 1
x[459] 1
x[460] 0
x[461] 1
x[462] 0
x[463] 0
x[464] 0
x[465] 1
x[466] 1
x[467] 1
x[468] 0
x[469] 1
x[470] 1
x[471] 0
x[472] 1
x[473] 0
x[474] 0
x[475] 1
x[476] 0
x[477] 1
x[478] 1
x[479] 0
x[480] 1
x[481] 1
x[482] 1
x[483] 1
x[484] 1
x[485] 0
x[486] 1
x[487] 1
x[488] 1
x[489] 1
x[490] 0
x[491] 1
x[492] 1
x[493] 1
x[494] 1
x[495] 0
x[496] 1
x[497] 1
x[498] 0
x[499] 0
x[500] 1
x[501] 1
x[502] 1
x[503] 1
x[504] 0
x[505] 0
x[506] 0
x[507] 1
x[508] 1
x[509] 1
x[510] 0
x[511] 1
x[512] 0
x[513] 1
x[514] 0
x[515] 1
x[516] 0
x[517] 0
x[518] 1
x[519] 0
x[520] 1
x[521] 0
x[522] 0
x[523] 0
x[524] 1
x[525] 0
x[526] 1
x[527] 1
x[528] 0
x[529] 1
x[530] 1
x[531] 1
x[532] 0
x[533] 1
x[534] 0
x[535] 1
x[536] 1
x[537] 1
x[538] 0
x[539] 0
x[540] 1
x[541] 1
x[542] 0
x[543] 1
x[544] 0
x[545] 1
x[546] 1
x[547] 1
x[548] 0
x[549] 0
x[550] 1
x[551] 0
x[552] 1
x[553] 1
x[554] 0
x[555] 1
x[556] 0
x[557] 1
x[558] 0
x[559] 1
x[560] 1
x[561] 1
x[562] 1
x[563] 0
x[564] 1
x[565] 1
x[566] 1
x[567] 1
x[568] 0
x[569] 0
x[570] 1
x[571] 1
x[572] 0
x[573] 1
x[574] 0
x[575] 1
x[576] 0
x[577] 1
x[578] 0
x[579] 0
x[580] 0
x[581] 1
x[582] 1
x[583] 0
x[584] 1
x[585] 1
x[586] 1
x[587] 0
x[588] 0
x[589] 0
x[590] 1
x[591] 0
x[592] 0
x[593] 0
x[594] 0
x[595] 1
x[596] 0
x[597] 1
x[598] 0
x[599] 0
x[600] 1
x[601] 0
x[602] 0
x[603] 1
x[604] 1
x[605] 1
x[606] 1
x[607] 1
x[608] 1
x[609] 0
x[610] 0
x[611] 1
x[612] 1
x[613] 1
x[614] 1
x[615] 0
x[616] 1
x[617] 1
x[618] 0
x[619] 1
x[620] 1
x[621] 0
x[622] 1
x[623] 0
x[624] 1
x[625] 0
x[626] 1
x[627] 0
x[628] 1
x[629] 0
x[630] 1
x[631] 0
x[632] 0
x[633] 1
x[634] 1
x[635] 1
x[636] 1
x[637] 1
x[638] 1
x[639] 0
x[640] 0
x[641] 0
x[642] 1
x[643] 0
x[644] 1
x[645] 1
x[646] 1
x[647] 1
x[648] 1
x[649] 0
x[650] 0
x[651] 1
x[652] 0
x[653] 0
x[654] 1
x[655] 1
x[656] 0
x[657] 0
x[658] 1
x[659] 0
x[660] 1
x[661] 1
x[662] 1
x[663] 1
x[664] 1
x[665] 0
x[666] 1
x[667] 0
x[668] 0
x[669] 1
x[670] 0
x[671] 1
x[672] 1
x[673] 0
x[674] 1
x[675] 0
x[676] 0
x[677] 1
x[678] 0
x[679] 0
x[680] 1
x[681] 1
x[682] 1
x[683] 1
x[684] 1
x[685] 0
x[686] 1
x[687] 1
x[688] 1
x[689] 0
x[690] 1
x[691] 0
x[692] 0
x[693] 1
x[694] 1
x[695] 0
x[696] 0
x[697] 1
x[698] 0
x[699] 0
x[700] 1
x[701] 1
x[702] 1
x[703] 1
x[704] 1
x[705] 0
x[706] 1
x[707] 0
x[708] 1
x[709] 0
x[710] 1
x[711] 0
x[712] 1
x[713] 1
x[714] 0
x[715] 0
x[716] 0
x[717] 0
x[718] 1
x[719] 1
x[720] 0
x[721] 1
x[722] 1
x[723] 1
x[724] 0
x[725] 1
x[726] 0
x[727] 1
x[728] 0
x[729] 1
x[730] 1
x[731] 0
x[732] 0
x[733] 1
x[734] 1
x[735] 0
x[736] 1
x[737] 1
x[738] 1
x[739] 1
x[740] 1
x[741] 1
x[742] 0
x[743] 1
x[744] 0
x[745] 0
x[746] 1
x[747] 0
x[748] 0
x[749] 0
x[750] 1
x[751] 1
x[752] 0
x[753] 1
x[754] 0
x[755] 1
x[756] 0
x[757] 1
x[758] 0
x[759] 0
x[760] 0
x[761] 0
x[762] 0
x[763] 1
x[764] 1
x[765] 0
x[766] 1
x[767] 0
x[768] 0
x[769] 1
x[770] 0
x[771] 0
x[772] 1
x[773] 1
x[774] 0
x[775] 0
x[776] 1
x[777] 0
x[778] 1
x[779] 1
x[780] 1
x[781] 0
x[782] 1
x[783] 1
x[784] 1
x[785] 0
x[786] 0
x[787] 0
x[788] 1
x[789] 1
x[790] 1
x[791] 0
x[792] 1
x[793] 1
x[794] 1
x[795] 0
x[796] 1
x[797] 1
x[798] 0
x[799] 0
x[800] 1
x[801] 1
x[802] 1
x[803] 1
x[804] 1
x[805] 0
x[806] 1
x[807] 1
x[808] 1
x[809] 1
x[810] 0
x[811] 1
x[812] 1
x[813] 1
x[814] 1
x[815] 0
x[816] 1
x[817] 1
x[818] 0
x[819] 1
x[820] 1
x[821] 0
x[822] 1
x[823] 1
x[824] 1
x[825] 1
x[826] 0
x[827] 1
x[828] 1
x[829] 0
x[830] 1
x[831] 0
x[832] 1
x[833] 1
x[834] 1
x[835] 1
x[836] 1
x[837] 0
x[838] 1
x[839] 0
x[840] 1
x[841] 0
x[842] 0
x[843] 1
x[844] 1
x[845] 0
x[846] 0
x[847] 1
x[848] 0
x[849] 0
x[850] 0
x[851] 1
x[852] 1
x[853] 0
x[854] 1
x[855] 0
x[856] 0
x[857] 0
x[858] 1
x[859] 1
x[860] 1
x[861] 1
x[862] 1
x[863] 0
x[864] 0
x[865] 0
x[866] 1
x[867] 0
x[868] 0
x[869] 1
x[870] 1
x[871] 1
x[872] 0
x[873] 1
x[874] 0
x[875] 0
x[876] 0
x[877] 1
x[878] 1
x[879] 0
x[880] 0
x[881] 1
x[882] 0
x[883] 0
x[884] 0
x[885] 0
x[886] 0
x[887] 0
x[888] 0
x[889] 0
x[890] 1
x[891] 1
x[892] 1
x[893] 1
x[894] 1
x[895] 1
x[896] 1
x[897] 0
x[898] 0
x[899] 0
x[900] 1
x[901] 1
x[902] 1
x[903] 1
x[904] 0
x[905] 0
x[906] 0
x[907] 1
x[908] 1
x[909] 1
x[910] 0
x[911] 1
x[912] 1
x[913] 1
x[914] 0
x[915] 1
x[916] 1
x[917] 0
x[918] 0
x[919] 0
x[920] 0
x[921] 0
x[922] 0
x[923] 1
x[924] 1
x[925] 1
x[926] 1
x[927] 1
x[928] 1
x[929] 1
x[930] 1
x[931] 0
x[932] 0
x[933] 1
x[934] 1
x[935] 1
x[936] 0
x[937] 1
x[938] 0
x[939] 1
x[940] 0
x[941] 1
x[942] 0
x[943] 1
x[944] 1
x[945] 0
x[946] 1
x[947] 1
x[948] 0
x[949] 1
x[950] 1
x[951] 1
x[952] 0
x[953] 0
x[954] 1
x[955] 0
x[956] 0
x[957] 0
x[958] 1
x[959] 1
x[960] 0
x[961] 1
x[962] 0
x[963] 1
x[964] 1
x[965] 1
x[966] 1
x[967] 0
x[968] 1
x[969] 1
x[970] 0
x[971] 1
x[972] 0
x[973] 0
x[974] 1
x[975] 0
x[976] 0
x[977] 1
x[978] 1
x[979] 0
x[980] 0
x[981] 0
x[982] 0
x[983] 1
x[984] 1
x[985] 1
x[986] 1
x[987] 0
x[988] 0
x[989] 1
x[990] 1
x[991] 1
x[992] 1
x[993] 1
x[994] 0
x[995] 1
x[996] 0
x[997] 0
x[998] 1
x[999] 1
